100
120
99
98
98
97
97
96
95
93
93
93
93
93
92
91
91
91
89
87
86
83
83
82
81
80
80
80
76
76
76
75
75
75
75
75
73
71
71
70
70
70
69
67
66
65
64
63
62
62
61
61
61
61
60
60
59
58
58
58
57
56
55
55
55
54
53
52
52
52
52
51
51
50
49
47
46
46
45
45
44
44
43
43
39
39
38
37
37
34
33
32
29
28
28
26
25
24
22
22
21
20
